rc101_3
0 101 76 71 14 74 16 17 88 67 93 84 13 8 11 10 33 39 4 34 36 91 62 89 85 53 26 28 30 37 35 69 45 44 5 31 12 7 103 61 29 27 25 56 18 64 15 2 20 86 59 70 38 79 54 63 66 100 72 68 90 23 3 82 87 19 73 78 21 77 55 105 47 49 43 40 42 41 51 9 75 0